
Gurobi 8.1.1 (win64, Python) logging started 09/12/19 21:32:50

Academic license - for non-commercial use only

Gurobi 8.1.1 (win64, Python) logging started 09/12/19 21:34:00

Academic license - for non-commercial use only

Gurobi 8.1.1 (win64, Python) logging started 09/12/19 21:36:42

Academic license - for non-commercial use only

Gurobi 8.1.1 (win64, Python) logging started 09/12/19 21:43:53

Academic license - for non-commercial use only

Gurobi 8.1.1 (win64, Python) logging started 09/12/19 21:45:01

Academic license - for non-commercial use only

Gurobi 8.1.1 (win64, Python) logging started 09/12/19 22:11:42

Academic license - for non-commercial use only

Gurobi 8.1.1 (win64, Python) logging started 09/12/19 22:14:24

Academic license - for non-commercial use only

Gurobi 8.1.1 (win64, Python) logging started 09/13/19 12:15:49

Academic license - for non-commercial use only

Gurobi 8.1.1 (win64, Python) logging started 09/13/19 12:27:33

Academic license - for non-commercial use only

Gurobi 8.1.1 (win64, Python) logging started 09/17/19 12:39:06

Academic license - for non-commercial use only

Gurobi 8.1.1 (win64, Python) logging started 09/17/19 12:41:14

Academic license - for non-commercial use only

Gurobi 8.1.1 (win64, Python) logging started 09/17/19 12:47:21

Academic license - for non-commercial use only

Gurobi 8.1.1 (win64, Python) logging started 09/17/19 12:51:13

Academic license - for non-commercial use only

Gurobi 8.1.1 (win64, Python) logging started 09/17/19 12:58:02

Academic license - for non-commercial use only

Gurobi 8.1.1 (win64, Python) logging started 09/17/19 13:09:46

Academic license - for non-commercial use only

Gurobi 8.1.1 (win64, Python) logging started 09/17/19 13:12:35

Academic license - for non-commercial use only

Gurobi 8.1.1 (win64, Python) logging started 09/17/19 13:15:03

Academic license - for non-commercial use only

Gurobi 8.1.1 (win64, Python) logging started 09/17/19 13:24:08

Academic license - for non-commercial use only

Gurobi 8.1.1 (win64, Python) logging started 09/17/19 13:27:24

Academic license - for non-commercial use only

Gurobi 8.1.1 (win64, Python) logging started 09/17/19 13:32:41

Academic license - for non-commercial use only

Gurobi 8.1.1 (win64, Python) logging started 09/17/19 13:50:37

Academic license - for non-commercial use only

Gurobi 8.1.1 (win64, Python) logging started 09/17/19 13:52:50

Academic license - for non-commercial use only

Gurobi 8.1.1 (win64, Python) logging started 09/17/19 14:34:44

Academic license - for non-commercial use only

Gurobi 8.1.1 (win64, Python) logging started 09/17/19 14:39:00

Academic license - for non-commercial use only

Gurobi 8.1.1 (win64, Python) logging started 09/17/19 14:43:02

Academic license - for non-commercial use only

Gurobi 8.1.1 (win64, Python) logging started 09/17/19 14:57:39

Academic license - for non-commercial use only
